c Random generated cnf formula, satisfiable: true
p cnf 10 50
10 -2 7 0
7 -1 -6 0
-5 -7 4 0
6 4 -10 0
-5 7 4 0
10 -2 4 0
-3 -6 -9 0
2 -6 -7 0
6 4 -7 0
-2 6 3 0
4 3 -1 0
9 -2 10 0
-10 3 1 0
7 -8 -4 0
6 -8 -4 0
3 1 4 0
-4 -6 3 0
1 -10 2 0
-6 5 1 0
10 -9 -1 0
-2 5 10 0
-1 -9 8 0
9 6 10 0
-7 -1 -9 0
-1 -2 -6 0
4 -2 1 0
8 5 -6 0
-10 8 5 0
-3 -2 10 0
-6 -1 9 0
5 2 -4 0
-9 5 4 0
-2 -5 -1 0
-5 7 1 0
4 9 -6 0
-4 7 -5 0
-9 -3 1 0
9 4 7 0
10 -4 -2 0
4 -9 -2 0
10 9 1 0
2 -7 5 0
6 -1 10 0
-8 -4 1 0
-9 2 -6 0
3 -4 -9 0
-7 -3 -4 0
-7 4 -5 0
-6 -2 8 0
-5 6 -8 0
